db/inputs/43552602297613160692247404192459581.smt2
(set-logic QF_FP)
(declare-const x0 (_ FloatingPoint 11 53))
(declare-const x1 (_ FloatingPoint 11 53))
(declare-const x2 (_ FloatingPoint 11 53))
(declare-const x3 (_ FloatingPoint 11 53))
(declare-const x4 (_ FloatingPoint 11 53))
(declare-const x5 (_ FloatingPoint 11 53))
(declare-const x6 (_ FloatingPoint 11 53))
(declare-const x7 (_ FloatingPoint 11 53))
(declare-const x8 (_ FloatingPoint 11 53))
(declare-const x9 (_ FloatingPoint 11 53))
(declare-const x10 (_ FloatingPoint 11 53))
(declare-const x11 (_ FloatingPoint 11 53))
(declare-const x12 (_ FloatingPoint 11 53))
(declare-const x13 (_ FloatingPoint 11 53))
(assert (fp.gt (fp.sub RNE (fp.div RNE (fp.div RNE x11 x1) (fp.neg x2)) (fp.neg (fp.sub RNE x5 x5))) (fp.sub RNE (fp.neg (fp.neg x9)) (fp.neg (fp.sub RNE x8 x10)))))
(assert (fp.gt (fp.sub RNE (fp.sub RNE (fp.div RNE x0 x10) (fp.add RNE x2 x0)) (fp.sub RNE (fp.add RNE x10 x10) (fp.neg x12))) (fp.add RNE (fp.sub RNE (fp.div RNE x0 x2) (fp.add RNE x2 x12)) (fp.sub RNE (fp.div RNE x11 x7) (fp.add RNE x4 x10)))))
(assert (fp.geq (fp.mul RNE (fp.neg (fp.div RNE x3 x8)) (fp.div RNE (fp.neg x8) (fp.neg x1))) (fp.mul RNE (fp.sub RNE (fp.sub RNE x2 x3) (fp.add RNE x11 x4)) (fp.neg (fp.mul RNE x7 x1)))))
(assert (fp.leq (fp.div RNE (fp.neg (fp.mul RNE x3 x3)) (fp.div RNE (fp.add RNE x12 x9) (fp.div RNE x10 x0))) (fp.div RNE (fp.add RNE (fp.sub RNE x4 x13) (fp.mul RNE x13 x5)) (fp.div RNE (fp.add RNE x6 x12) (fp.sub RNE x11 x13)))))
(assert (fp.leq (fp.neg (fp.neg (fp.mul RNE x0 x4))) (fp.add RNE (fp.div RNE (fp.add RNE x13 x7) (fp.neg x10)) (fp.mul RNE (fp.neg x2) (fp.div RNE x13 x2)))))
(assert (fp.eq (fp.sub RNE (fp.neg (fp.add RNE x8 x8)) (fp.neg (fp.add RNE x9 x1))) (fp.div RNE (fp.div RNE (fp.add RNE x3 x1) (fp.mul RNE x4 x6)) (fp.sub RNE (fp.mul RNE x7 x10) (fp.neg x10)))))
(assert (fp.lt (fp.neg (fp.neg (fp.sub RNE x5 x0))) (fp.div RNE (fp.add RNE (fp.neg x12) (fp.mul RNE x1 x3)) (fp.mul RNE (fp.div RNE x7 x7) (fp.sub RNE x6 x12)))))
(assert (fp.leq (fp.mul RNE (fp.add RNE (fp.add RNE x6 x3) (fp.add RNE x5 x2)) (fp.sub RNE (fp.neg x2) (fp.sub RNE x10 x9))) (fp.div RNE (fp.mul RNE (fp.mul RNE x13 x8) (fp.sub RNE x1 x13)) (fp.neg (fp.sub RNE x1 x0)))))
(assert (fp.geq (fp.div RNE (fp.neg (fp.mul RNE x5 x13)) (fp.neg (fp.sub RNE x9 x6))) (fp.sub RNE (fp.div RNE (fp.neg x6) (fp.add RNE x3 x3)) (fp.div RNE (fp.div RNE x10 x7) (fp.add RNE x4 x1)))))
(assert (fp.gt (fp.mul RNE (fp.div RNE (fp.add RNE x8 x0) (fp.sub RNE x10 x10)) (fp.div RNE (fp.div RNE x3 x13) (fp.sub RNE x7 x7))) (fp.add RNE (fp.sub RNE (fp.sub RNE x1 x0) (fp.div RNE x3 x0)) (fp.mul RNE (fp.mul RNE x5 x4) (fp.mul RNE x11 x8)))))
(assert (fp.gt (fp.sub RNE (fp.mul RNE (fp.neg x2) (fp.add RNE x0 x11)) (fp.mul RNE (fp.sub RNE x0 x13) (fp.neg x1))) (fp.div RNE (fp.mul RNE (fp.div RNE x5 x3) (fp.mul RNE x12 x9)) (fp.mul RNE (fp.div RNE x10 x2) (fp.neg x13)))))
(assert (fp.gt (fp.div RNE (fp.sub RNE (fp.add RNE x8 x8) (fp.mul RNE x5 x0)) (fp.sub RNE (fp.div RNE x6 x10) (fp.div RNE x5 x4))) (fp.add RNE (fp.add RNE (fp.neg x10) (fp.add RNE x5 x8)) (fp.sub RNE (fp.sub RNE x2 x11) (fp.sub RNE x11 x0)))))
(assert (fp.leq (fp.add RNE (fp.div RNE (fp.mul RNE x1 x11) (fp.mul RNE x2 x4)) (fp.neg (fp.mul RNE x7 x0))) (fp.sub RNE (fp.sub RNE (fp.mul RNE x6 x8) (fp.sub RNE x11 x7)) (fp.add RNE (fp.neg x9) (fp.mul RNE x3 x13)))))
(assert (fp.lt (fp.div RNE (fp.add RNE (fp.mul RNE x3 x9) (fp.div RNE x3 x3)) (fp.add RNE (fp.add RNE x13 x12) (fp.sub RNE x7 x11))) (fp.mul RNE (fp.add RNE (fp.mul RNE x0 x7) (fp.neg x9)) (fp.sub RNE (fp.sub RNE x8 x7) (fp.add RNE x13 x5)))))
(check-sat)
