db/data/43552602297613160692247404192459581.z3.out
-------------------
2500.264368101
